DIMENSION: 6
EDGE_WEIGHT_TYPE: EXPLICIT
EDGE_WEIGHT_FORMAT: FULL_MATRIX
EDGE_WEIGHT_SECTION:
32767 77 83 12 77 32767 
77 32767 32767 32767 97 32767 
83 32767 32767 48 69 32767 
12 32767 48 32767 32767 32767 
77 97 69 32767 32767 46 
32767 32767 32767 32767 46 32767 
EOF